webassembly/ejemplos_dzn/10/folder10_json_28.dzn
TERM = { '.', 'in_1', 'local_0', 'local_1', 'in_2', 'in_3', 's(1)', 's(0)', 'in_0'};
null = '.';
s = 10;
n = 10;
ndeps = 1;
max_registers_sz = 5;
NR = 2;
registers = [|'local_0', 'in_0', |'local_1', 'in_0'|];
dependencies = [|'i32.load16_s_4', 'i32.store16_5'|];
GET_ENUM = { GET1, GET2, GET3, GET4, GET5, GET6, GET7};
SET_ENUM = { SET1, SET2, SET3, SET4, SET5, SET6, SET7};
TEE_ENUM = { TEE1, TEE2, TEE3, TEE4, TEE5, TEE6, TEE7};
N = 3;
OP = { 'i32.sub_0', 'i32.load16_s_4', 'i32.store16_5' };
in_ops = [2, 1, 2 ];
out_ops = [1, 1, 0 ];
in1 = ['in_0', 'in_0', 's(0)' ];
in2 = ['in_3', '.', 'in_1' ];
in3 = ['.', '.', '.' ];
out1 = ['s(1)', 's(0)', '.' ];
out2 = ['.', '.', '.' ];
out3 = ['.', '.', '.' ];
comm = [false, false, false ];
gas = [1, 1, 1 ];
sz = [1, 1, 1 ];
stor = [false, false, true ];
lb = [ 1, 1, 1 ];
ub = [ 10, 10, 10 ];
startstack = [ 'in_0', 'in_1', 'in_2', 'in_3', null, null, null, null, null, null ];
endstack = [ 's(1)', null, null, null, null, null, null, null, null, null ];
